c Sudoku solution
p cnf 729 0
156 0
185 0
199 0
228 0
234 0
251 0
273 0
367 0
438 0
543 0
591 0
615 0
644 0
679 0
714 0
825 0
335 0
847 0
858 0
918 0
872 0
884 0
929 0
869 0
789 0
539 0
937 0
993 0
896 0
981 0
975 0
495 0
394 0
164 0
353 0
763 0
741 0
755 0
245 0
262 0
148 0
349 0
382 0
378 0
171 0
219 0
459 0
954 0
565 0
668 0
461 0
446 0
942 0
966 0
576 0
474 0
588 0
524 0
316 0
321 0
811 0
833 0
631 0
626 0
683 0
722 0
736 0
132 0
777 0
798 0
487 0
692 0
412 0
517 0
423 0
552 0
657 0
113 0
127 0
286 0
297 0
